5136 4272 499 497 496 493 487 483 478 477 476 475 473 465 464 461 451 445 444 443 441 436 435 434 433 432 429 427 424 421 420 419 416 413 411 385 384 372 371 358 356 354 347 339 337 325 324 320 318 316 315 313 307 303 299 294 288 283 281 278 272 268 259 258 256 245 243 239 226 224 222 220 217 215 211 210 205 197 187 183 181 177 172 165 160 156 147 142 139 128 125 122 119 116 115 112 109 106 105 93 91 84 82 76 75 71 70 69 59 55 54 51 49 45 38 37 35 30 27 25 22 17 15 12 11 10 5 2 